24705.0
0 0 0 0 1 1 0 1 1 0 1 0 1 1 0 0 0 0 0 1 0 1 0 0 1 0 0 1 1 0 




10 28 32 43 60 84 104 106 111 124 167 174 178 193 
22 66 74 77 81 87 94 134 145 156 164 166 170 180 

0 15 40 56 59 62 70 83 89 92 93 103 117 144 149 194 196 
36 37 41 44 54 57 63 73 78 82 115 119 120 135 154 171 185 

17 24 49 76 80 98 133 139 152 162 173 177 179 187 198 

5 35 42 55 65 69 71 97 102 113 114 121 127 132 140 142 143 184 195 
12 13 16 46 64 75 85 95 109 136 137 158 159 160 168 





1 27 30 31 45 48 67 72 86 91 110 123 128 172 183 192 199 

2 4 6 21 29 33 39 47 53 101 125 126 147 157 169 175 181 182 189 190 191 197 


23 38 50 51 52 61 79 105 107 131 146 150 163 176 


3 7 8 18 19 20 25 26 34 58 88 108 112 141 148 161 165 188 
9 11 14 68 90 96 99 100 116 118 122 129 130 138 151 153 155 186 

